c WARNING: for repeatability, setting FPU to use double precision
d VARIABLES            71486        
d CONSTRAINTS          254212       
c ============================[ Problem Statistics ]=============================
c |                                                                             |
c |  Number of variables:         71486                                         |
c |  Number of clauses:          254212                                         |
c |  Parse time:                   0.05 s                                       |
c |                                                                             |
c ============================[ Search Statistics ]==============================
c | Conflicts |          ORIGINAL         |          LEARNT          | Progress |
c |           |    Vars  Clauses Literals |    Limit  Clauses Lit/Cl |          |
c ===============================================================================
c |       100 |   53433   208170   523547 |    76329      100     39 | 25.254 % |
c |       250 |   53433   208170   523547 |    83961      250     21 | 25.254 % |
c |       475 |   53433   208170   523547 |    92358      475     18 | 25.254 % |
c |       812 |   53433   208170   523547 |   101593      812     16 | 25.254 % |
c |      1318 |   53433   208170   523547 |   111753     1318     15 | 25.254 % |
c |      2077 |   53433   208170   523547 |   122928     2077     18 | 25.254 % |
c |      3216 |   53433   208170   523547 |   135221     3216     19 | 25.254 % |
c |      4924 |   53433   208170   523547 |   148743     4924     20 | 25.254 % |
c |      7486 |   53433   208170   523547 |   163617     7486     32 | 25.254 % |
c |     11330 |   53433   208170   523547 |   179979    11330     35 | 25.254 % |
c |     17096 |   53433   208170   523547 |   197977    17096     52 | 25.254 % |
c |     25745 |   53433   208170   523547 |   217775    25745     53 | 25.254 % |
c |     38719 |   53433   208170   523547 |   239553    38719     66 | 25.254 % |
c |     58180 |   53433   208170   523547 |   263508    58180     76 | 25.254 % |
c |     87372 |   53433   208170   523547 |   289859    87372     90 | 25.254 % |
c |    131161 |   53433   208170   523547 |   318845   131161    115 | 25.254 % |
c |    196845 |   53433   208170   523547 |   350729   196845    126 | 25.254 % |
c |    295371 |   53433   208170   523547 |   385802   295371    125 | 25.254 % |
c |    443160 |   53433   208170   523547 |   424382    75214    134 | 25.254 % |
c |    664843 |   53433   208170   523547 |   466821   296897    188 | 25.254 % |
c |    997368 |   53433   208170   523547 |   513503   180477    182 | 25.254 % |
c |   1496156 |   53433   208170   523547 |   564853   166180    118 | 25.254 % |
c |   2244338 |   53433   208170   523547 |   621339   361180    212 | 25.254 % |
c |   3366612 |   53433   208170   523547 |   683472   275039    128 | 25.254 % |
c ===============================================================================
c restarts              : 7376
c conflicts             : 4170151        (2331 /sec)
c decisions             : 11576383       (0.00 % random) (6472 /sec)
c propagations          : 4082026890     (2282028 /sec)
c conflict literals     : 813641519      (27.16 % deleted)
d RESTARTS             7376
d FAILURES             4170151      
d NODES                11576383     
d BACKTRACKS           11576383     
d PROPAGATIONS         4082026890   
d NOGOODSIZE           195.11 
d MEMORY               1007.00 
d TIME                 1788.77 

s UNKNOWN
